z1,z2,z3,nondominated
1,6,8,0
7,5,2,0
1,7,6,0
8,4,2,0
5,2,8,0
3,10,3,0
8,7,1,0
5,4,4,0
2,6,6,0
3,9,3,0
4,2,8,0
2,8,4,0
3,7,3,0
9,6,1,0
4,2,8,0
9,1,6,0
5,8,1,0
5,3,5,0
3,9,3,0
5,7,2,0
5,9,2,0
9,1,6,0
1,7,5,0
8,7,1,0
4,6,2,0
9,1,6,0
2,4,8,0
4,4,4,0
4,6,3,0
9,1,6,0
2,5,6,0
4,6,2,0
8,6,1,0
10,3,4,0
2,7,5,0
2,4,8,0
1,8,7,0
5,1,7,0
4,8,2,0
5,2,5,0
4,8,2,0
4,3,6,0
4,8,2,0
7,4,2,0
6,3,3,0
3,3,5,0
8,1,6,0
4,2,8,0
6,8,1,0
1,1,1,0
1,1,1,0
1,1,1,0
1,1,1,0
1,1,1,0
1,1,1,0
1,1,1,0
